Route #1: 1 57 68 70 44 22 25 53 2 59 18 1
Route #2: 1 39 73 12 27 45 24 78 41 65 50 48 1
Route #3: 1 3 28 66 6 64 76 31 1
Route #4: 1 7 61 67 17 43 26 19 11 69 1
Route #5: 1 13 35 46 52 16 9 72 32 1
Route #6: 1 5 49 40 75 29 20 10 62 14 1
Route #7: 1 54 15 42 37 56 34 36 60 1
Route #8: 1 63 51 55 21 4 74 1
Route #9: 1 30 71 38 58 8 33 23 1
Route #10: 1 77 47 1
cost 1511.2385438907515